0 2346 
1 2344 
2 2332 
3 2328 
4 2326 
5 2318 
6 2310 
7 2274 
8 2270 
9 2266 
10 2250 
11 2248 
12 2232 
13 2224 
14 2222 
15 2202 
16 2174 
17 2158 
18 2148 
19 2140 
20 2136 
21 2134 
22 2128 
23 2124 
24 2112 
25 2102 
26 2094 
27 2086 
28 2082 
29 2078 
30 2074 
31 2066 
32 2062 
33 2058 
34 2056 
35 2044 
36 2032 
37 2030 
38 2020 
39 2012 
40 2002 
41 1976 
42 1940 
43 1928 
44 1916 
45 1910 
46 1906 
47 1880 
48 1872 
49 1866 
50 1862 
51 1858 
52 1856 
53 1848 
54 1842 
55 1836 
56 1826 
57 1822 
58 1818 
59 1816 
60 1812 
61 1810 
62 1790 
63 1788 
64 1786 
65 1778 
66 1774 
67 1766 
68 1752 
69 1752 

